MINIMIZE
  COST :   0.0  M_0_0 +  50.001  R_0_0_0  + 0.0  R_0_0_0 
 +  50.002  R_0_1_0  + 1.14440917969  R_0_1_0 
 +  1.14440917969  M_0_1 +  50.002  R_0_1_1  + 0.0  R_0_1_1 
 +  55.001  R_0_2_0  + 1.14440917969  R_0_2_0 
 +  1.14440917969  M_0_2 +  55.001  R_0_2_2  + 0.0  R_0_2_2 
 +  50.003  R_0_3_0  + 1.14440917969  R_0_3_0 
 +  1.14440917969  M_0_3 +  50.003  R_0_3_3  + 0.0  R_0_3_3 
 +  50.004  R_0_4_0  + 1.14440917969  R_0_4_0 
 +  1.14440917969  M_0_4 +  50.004  R_0_4_4  + 0.0  R_0_4_4 
 +  50.005  R_0_5_0  + 1.14440917969  R_0_5_0 
 +  1.14440917969  M_0_5 +  50.005  R_0_5_5  + 0.0  R_0_5_5 
 +  55.002  R_0_6_0  + 1.14440917969  R_0_6_0 
 +  1.14440917969  M_0_6 +  55.002  R_0_6_6  + 0.0  R_0_6_6 
 +  70.0  R_0_7_0  + 1.14440917969  R_0_7_0 
 +  1.14440917969  M_0_7 +  70.0  R_0_7_7  + 0.0  R_0_7_7 
 +  1.001  R_0_13_0  + 1.14440917969  R_0_13_0 
 +  1.14440917969  M_0_13 +  1.001  R_0_13_13  + 0.0  R_0_13_13 
 +  1.002  R_0_14_0  + 1.14440917969  R_0_14_0 
 +  1.14440917969  M_0_14 +  1.002  R_0_14_14  + 0.0  R_0_14_14 
 +  1.003  R_0_15_0  + 1.14440917969  R_0_15_0 
 +  1.14440917969  M_0_15 +  1.003  R_0_15_15  + 0.0  R_0_15_15 
 +  1.004  R_0_16_0  + 1.14440917969  R_0_16_0 
 +  1.14440917969  M_0_16 +  1.004  R_0_16_16  + 0.0  R_0_16_16 
 +  1.005  R_0_17_0  + 1.14440917969  R_0_17_0 
 +  1.14440917969  M_0_17 +  1.005  R_0_17_17  + 0.0  R_0_17_17 
 +  1.006  R_0_18_0  + 1.14440917969  R_0_18_0 
 +  1.14440917969  M_0_18 +  1.006  R_0_18_18  + 0.0  R_0_18_18 
 +  1.14440917969  M_1_0 +  50.001  R_1_0_0  + 0.0  R_1_0_0 
 +  0.0  M_1_1 +  50.001  R_1_0_1  + 1.14440917969  R_1_0_1 
 +  50.002  R_1_1_1  + 0.0  R_1_1_1 
 +  55.001  R_1_2_1  + 1.14440917969  R_1_2_1 
 +  1.14440917969  M_1_2 +  55.001  R_1_2_2  + 0.0  R_1_2_2 
 +  50.003  R_1_3_1  + 1.14440917969  R_1_3_1 
 +  1.14440917969  M_1_3 +  50.003  R_1_3_3  + 0.0  R_1_3_3 
 +  50.004  R_1_4_1  + 1.14440917969  R_1_4_1 
 +  1.14440917969  M_1_4 +  50.004  R_1_4_4  + 0.0  R_1_4_4 
 +  50.005  R_1_5_1  + 1.14440917969  R_1_5_1 
 +  1.14440917969  M_1_5 +  50.005  R_1_5_5  + 0.0  R_1_5_5 
 +  55.002  R_1_6_1  + 1.14440917969  R_1_6_1 
 +  1.14440917969  M_1_6 +  55.002  R_1_6_6  + 0.0  R_1_6_6 
 +  70.0  R_1_7_1  + 1.14440917969  R_1_7_1 
 +  1.14440917969  M_1_7 +  70.0  R_1_7_7  + 0.0  R_1_7_7 
 +  1.001  R_1_13_1  + 1.14440917969  R_1_13_1 
 +  1.14440917969  M_1_13 +  1.001  R_1_13_13  + 0.0  R_1_13_13 
 +  1.002  R_1_14_1  + 1.14440917969  R_1_14_1 
 +  1.14440917969  M_1_14 +  1.002  R_1_14_14  + 0.0  R_1_14_14 
 +  1.003  R_1_15_1  + 1.14440917969  R_1_15_1 
 +  1.14440917969  M_1_15 +  1.003  R_1_15_15  + 0.0  R_1_15_15 
 +  1.004  R_1_16_1  + 1.14440917969  R_1_16_1 
 +  1.14440917969  M_1_16 +  1.004  R_1_16_16  + 0.0  R_1_16_16 
 +  1.005  R_1_17_1  + 1.14440917969  R_1_17_1 
 +  1.14440917969  M_1_17 +  1.005  R_1_17_17  + 0.0  R_1_17_17 
 +  1.006  R_1_18_1  + 1.14440917969  R_1_18_1 
 +  1.14440917969  M_1_18 +  1.006  R_1_18_18  + 0.0  R_1_18_18 
 +  1.14440917969  M_2_0 +  50.001  R_2_0_0  + 0.0  R_2_0_0 
 +  0.0  M_2_2 +  50.001  R_2_0_2  + 1.14440917969  R_2_0_2 
 +  1.14440917969  M_2_1 +  50.002  R_2_1_1  + 0.0  R_2_1_1 
 +  50.002  R_2_1_2  + 1.14440917969  R_2_1_2 
 +  55.001  R_2_2_2  + 0.0  R_2_2_2 
 +  50.003  R_2_3_2  + 1.14440917969  R_2_3_2 
 +  1.14440917969  M_2_3 +  50.003  R_2_3_3  + 0.0  R_2_3_3 
 +  50.004  R_2_4_2  + 1.14440917969  R_2_4_2 
 +  1.14440917969  M_2_4 +  50.004  R_2_4_4  + 0.0  R_2_4_4 
 +  50.005  R_2_5_2  + 1.14440917969  R_2_5_2 
 +  1.14440917969  M_2_5 +  50.005  R_2_5_5  + 0.0  R_2_5_5 
 +  55.002  R_2_6_2  + 1.14440917969  R_2_6_2 
 +  1.14440917969  M_2_6 +  55.002  R_2_6_6  + 0.0  R_2_6_6 
 +  70.0  R_2_7_2  + 1.14440917969  R_2_7_2 
 +  1.14440917969  M_2_7 +  70.0  R_2_7_7  + 0.0  R_2_7_7 
 +  1.001  R_2_13_2  + 1.14440917969  R_2_13_2 
 +  1.14440917969  M_2_13 +  1.001  R_2_13_13  + 0.0  R_2_13_13 
 +  1.002  R_2_14_2  + 1.14440917969  R_2_14_2 
 +  1.14440917969  M_2_14 +  1.002  R_2_14_14  + 0.0  R_2_14_14 
 +  1.003  R_2_15_2  + 1.14440917969  R_2_15_2 
 +  1.14440917969  M_2_15 +  1.003  R_2_15_15  + 0.0  R_2_15_15 
 +  1.004  R_2_16_2  + 1.14440917969  R_2_16_2 
 +  1.14440917969  M_2_16 +  1.004  R_2_16_16  + 0.0  R_2_16_16 
 +  1.005  R_2_17_2  + 1.14440917969  R_2_17_2 
 +  1.14440917969  M_2_17 +  1.005  R_2_17_17  + 0.0  R_2_17_17 
 +  1.006  R_2_18_2  + 1.14440917969  R_2_18_2 
 +  1.14440917969  M_2_18 +  1.006  R_2_18_18  + 0.0  R_2_18_18 
 +  0.00905990600586 C_0 
 +  0.00905990600586 C_1 
 +  0.0100135803223 C_2 
 +  0.00905990600586 C_3 
 +  0.00905990600586 C_4 
 +  0.00953674316406 C_5 
 +  0.0100135803223 C_6 
 +  0.0123977661133 C_7 
 +  0.00905990600586 C_13 
 +  0.00905990600586 C_14 
 +  0.00905990600586 C_15 
 +  0.00905990600586 C_16 
 +  0.00905990600586 C_17 
 +  0.00905990600586 C_18 


SUBJECT TO
 X1_0_0_0 : X_0_0_0 - P_0_0 - P_0_0 <= 0
 X2_0_0_0 : P_0_0 + P_0_0 - 2  X_0_0_0 <= 0
 X1_0_0_1 : X_0_0_1 - P_1_0 - P_1_0 <= 0
 X2_0_0_1 : P_1_0 + P_1_0 - 2  X_0_0_1 <= 0
 X1_0_0_2 : X_0_0_2 - P_2_0 - P_2_0 <= 0
 X2_0_0_2 : P_2_0 + P_2_0 - 2  X_0_0_2 <= 0
 X1_0_0_3 : X_0_0_3 - P_3_0 - P_3_0 <= 0
 X2_0_0_3 : P_3_0 + P_3_0 - 2  X_0_0_3 <= 0
 X1_0_0_4 : X_0_0_4 - P_4_0 - P_4_0 <= 0
 X2_0_0_4 : P_4_0 + P_4_0 - 2  X_0_0_4 <= 0
 X1_0_0_5 : X_0_0_5 - P_5_0 - P_5_0 <= 0
 X2_0_0_5 : P_5_0 + P_5_0 - 2  X_0_0_5 <= 0
 X1_0_0_6 : X_0_0_6 - P_6_0 - P_6_0 <= 0
 X2_0_0_6 : P_6_0 + P_6_0 - 2  X_0_0_6 <= 0
 X1_0_0_7 : X_0_0_7 - P_7_0 - P_7_0 <= 0
 X2_0_0_7 : P_7_0 + P_7_0 - 2  X_0_0_7 <= 0
 X1_0_0_13 : X_0_0_13 - P_13_0 - P_13_0 <= 0
 X2_0_0_13 : P_13_0 + P_13_0 - 2  X_0_0_13 <= 0
 X1_0_0_14 : X_0_0_14 - P_14_0 - P_14_0 <= 0
 X2_0_0_14 : P_14_0 + P_14_0 - 2  X_0_0_14 <= 0
 X1_0_0_15 : X_0_0_15 - P_15_0 - P_15_0 <= 0
 X2_0_0_15 : P_15_0 + P_15_0 - 2  X_0_0_15 <= 0
 X1_0_0_16 : X_0_0_16 - P_16_0 - P_16_0 <= 0
 X2_0_0_16 : P_16_0 + P_16_0 - 2  X_0_0_16 <= 0
 X1_0_0_17 : X_0_0_17 - P_17_0 - P_17_0 <= 0
 X2_0_0_17 : P_17_0 + P_17_0 - 2  X_0_0_17 <= 0
 X1_0_0_18 : X_0_0_18 - P_18_0 - P_18_0 <= 0
 X2_0_0_18 : P_18_0 + P_18_0 - 2  X_0_0_18 <= 0
 X3_0_0 :  P_0_0 + P_0_0 - X_0_0_0  +  P_1_0 + P_1_0 - X_0_0_1  +  P_2_0 + P_2_0 - X_0_0_2  +  P_3_0 + P_3_0 - X_0_0_3  +  P_4_0 + P_4_0 - X_0_0_4  +  P_5_0 + P_5_0 - X_0_0_5  +  P_6_0 + P_6_0 - X_0_0_6  +  P_7_0 + P_7_0 - X_0_0_7  +  P_13_0 + P_13_0 - X_0_0_13  +  P_14_0 + P_14_0 - X_0_0_14  +  P_15_0 + P_15_0 - X_0_0_15  +  P_16_0 + P_16_0 - X_0_0_16  +  P_17_0 + P_17_0 - X_0_0_17  +  P_18_0 + P_18_0 - X_0_0_18  > 1
 X1_0_1_0 : X_0_1_0 - P_0_0 - P_0_1 <= 0
 X2_0_1_0 : P_0_0 + P_0_1 - 2  X_0_1_0 <= 0
 X1_0_1_1 : X_0_1_1 - P_1_0 - P_1_1 <= 0
 X2_0_1_1 : P_1_0 + P_1_1 - 2  X_0_1_1 <= 0
 X1_0_1_2 : X_0_1_2 - P_2_0 - P_2_1 <= 0
 X2_0_1_2 : P_2_0 + P_2_1 - 2  X_0_1_2 <= 0
 X1_0_1_3 : X_0_1_3 - P_3_0 - P_3_1 <= 0
 X2_0_1_3 : P_3_0 + P_3_1 - 2  X_0_1_3 <= 0
 X1_0_1_4 : X_0_1_4 - P_4_0 - P_4_1 <= 0
 X2_0_1_4 : P_4_0 + P_4_1 - 2  X_0_1_4 <= 0
 X1_0_1_5 : X_0_1_5 - P_5_0 - P_5_1 <= 0
 X2_0_1_5 : P_5_0 + P_5_1 - 2  X_0_1_5 <= 0
 X1_0_1_6 : X_0_1_6 - P_6_0 - P_6_1 <= 0
 X2_0_1_6 : P_6_0 + P_6_1 - 2  X_0_1_6 <= 0
 X1_0_1_7 : X_0_1_7 - P_7_0 - P_7_1 <= 0
 X2_0_1_7 : P_7_0 + P_7_1 - 2  X_0_1_7 <= 0
 X1_0_1_13 : X_0_1_13 - P_13_0 - P_13_1 <= 0
 X2_0_1_13 : P_13_0 + P_13_1 - 2  X_0_1_13 <= 0
 X1_0_1_14 : X_0_1_14 - P_14_0 - P_14_1 <= 0
 X2_0_1_14 : P_14_0 + P_14_1 - 2  X_0_1_14 <= 0
 X1_0_1_15 : X_0_1_15 - P_15_0 - P_15_1 <= 0
 X2_0_1_15 : P_15_0 + P_15_1 - 2  X_0_1_15 <= 0
 X1_0_1_16 : X_0_1_16 - P_16_0 - P_16_1 <= 0
 X2_0_1_16 : P_16_0 + P_16_1 - 2  X_0_1_16 <= 0
 X1_0_1_17 : X_0_1_17 - P_17_0 - P_17_1 <= 0
 X2_0_1_17 : P_17_0 + P_17_1 - 2  X_0_1_17 <= 0
 X1_0_1_18 : X_0_1_18 - P_18_0 - P_18_1 <= 0
 X2_0_1_18 : P_18_0 + P_18_1 - 2  X_0_1_18 <= 0
 X3_0_1 :  P_0_0 + P_0_1 - X_0_1_0  +  P_1_0 + P_1_1 - X_0_1_1  +  P_2_0 + P_2_1 - X_0_1_2  +  P_3_0 + P_3_1 - X_0_1_3  +  P_4_0 + P_4_1 - X_0_1_4  +  P_5_0 + P_5_1 - X_0_1_5  +  P_6_0 + P_6_1 - X_0_1_6  +  P_7_0 + P_7_1 - X_0_1_7  +  P_13_0 + P_13_1 - X_0_1_13  +  P_14_0 + P_14_1 - X_0_1_14  +  P_15_0 + P_15_1 - X_0_1_15  +  P_16_0 + P_16_1 - X_0_1_16  +  P_17_0 + P_17_1 - X_0_1_17  +  P_18_0 + P_18_1 - X_0_1_18  > 1
 X1_0_2_0 : X_0_2_0 - P_0_0 - P_0_2 <= 0
 X2_0_2_0 : P_0_0 + P_0_2 - 2  X_0_2_0 <= 0
 X1_0_2_1 : X_0_2_1 - P_1_0 - P_1_2 <= 0
 X2_0_2_1 : P_1_0 + P_1_2 - 2  X_0_2_1 <= 0
 X1_0_2_2 : X_0_2_2 - P_2_0 - P_2_2 <= 0
 X2_0_2_2 : P_2_0 + P_2_2 - 2  X_0_2_2 <= 0
 X1_0_2_3 : X_0_2_3 - P_3_0 - P_3_2 <= 0
 X2_0_2_3 : P_3_0 + P_3_2 - 2  X_0_2_3 <= 0
 X1_0_2_4 : X_0_2_4 - P_4_0 - P_4_2 <= 0
 X2_0_2_4 : P_4_0 + P_4_2 - 2  X_0_2_4 <= 0
 X1_0_2_5 : X_0_2_5 - P_5_0 - P_5_2 <= 0
 X2_0_2_5 : P_5_0 + P_5_2 - 2  X_0_2_5 <= 0
 X1_0_2_6 : X_0_2_6 - P_6_0 - P_6_2 <= 0
 X2_0_2_6 : P_6_0 + P_6_2 - 2  X_0_2_6 <= 0
 X1_0_2_7 : X_0_2_7 - P_7_0 - P_7_2 <= 0
 X2_0_2_7 : P_7_0 + P_7_2 - 2  X_0_2_7 <= 0
 X1_0_2_13 : X_0_2_13 - P_13_0 - P_13_2 <= 0
 X2_0_2_13 : P_13_0 + P_13_2 - 2  X_0_2_13 <= 0
 X1_0_2_14 : X_0_2_14 - P_14_0 - P_14_2 <= 0
 X2_0_2_14 : P_14_0 + P_14_2 - 2  X_0_2_14 <= 0
 X1_0_2_15 : X_0_2_15 - P_15_0 - P_15_2 <= 0
 X2_0_2_15 : P_15_0 + P_15_2 - 2  X_0_2_15 <= 0
 X1_0_2_16 : X_0_2_16 - P_16_0 - P_16_2 <= 0
 X2_0_2_16 : P_16_0 + P_16_2 - 2  X_0_2_16 <= 0
 X1_0_2_17 : X_0_2_17 - P_17_0 - P_17_2 <= 0
 X2_0_2_17 : P_17_0 + P_17_2 - 2  X_0_2_17 <= 0
 X1_0_2_18 : X_0_2_18 - P_18_0 - P_18_2 <= 0
 X2_0_2_18 : P_18_0 + P_18_2 - 2  X_0_2_18 <= 0
 X3_0_2 :  P_0_0 + P_0_2 - X_0_2_0  +  P_1_0 + P_1_2 - X_0_2_1  +  P_2_0 + P_2_2 - X_0_2_2  +  P_3_0 + P_3_2 - X_0_2_3  +  P_4_0 + P_4_2 - X_0_2_4  +  P_5_0 + P_5_2 - X_0_2_5  +  P_6_0 + P_6_2 - X_0_2_6  +  P_7_0 + P_7_2 - X_0_2_7  +  P_13_0 + P_13_2 - X_0_2_13  +  P_14_0 + P_14_2 - X_0_2_14  +  P_15_0 + P_15_2 - X_0_2_15  +  P_16_0 + P_16_2 - X_0_2_16  +  P_17_0 + P_17_2 - X_0_2_17  +  P_18_0 + P_18_2 - X_0_2_18  > 1
 X1_1_0_0 : X_1_0_0 - P_0_1 - P_0_0 <= 0
 X2_1_0_0 : P_0_1 + P_0_0 - 2  X_1_0_0 <= 0
 X1_1_0_1 : X_1_0_1 - P_1_1 - P_1_0 <= 0
 X2_1_0_1 : P_1_1 + P_1_0 - 2  X_1_0_1 <= 0
 X1_1_0_2 : X_1_0_2 - P_2_1 - P_2_0 <= 0
 X2_1_0_2 : P_2_1 + P_2_0 - 2  X_1_0_2 <= 0
 X1_1_0_3 : X_1_0_3 - P_3_1 - P_3_0 <= 0
 X2_1_0_3 : P_3_1 + P_3_0 - 2  X_1_0_3 <= 0
 X1_1_0_4 : X_1_0_4 - P_4_1 - P_4_0 <= 0
 X2_1_0_4 : P_4_1 + P_4_0 - 2  X_1_0_4 <= 0
 X1_1_0_5 : X_1_0_5 - P_5_1 - P_5_0 <= 0
 X2_1_0_5 : P_5_1 + P_5_0 - 2  X_1_0_5 <= 0
 X1_1_0_6 : X_1_0_6 - P_6_1 - P_6_0 <= 0
 X2_1_0_6 : P_6_1 + P_6_0 - 2  X_1_0_6 <= 0
 X1_1_0_7 : X_1_0_7 - P_7_1 - P_7_0 <= 0
 X2_1_0_7 : P_7_1 + P_7_0 - 2  X_1_0_7 <= 0
 X1_1_0_13 : X_1_0_13 - P_13_1 - P_13_0 <= 0
 X2_1_0_13 : P_13_1 + P_13_0 - 2  X_1_0_13 <= 0
 X1_1_0_14 : X_1_0_14 - P_14_1 - P_14_0 <= 0
 X2_1_0_14 : P_14_1 + P_14_0 - 2  X_1_0_14 <= 0
 X1_1_0_15 : X_1_0_15 - P_15_1 - P_15_0 <= 0
 X2_1_0_15 : P_15_1 + P_15_0 - 2  X_1_0_15 <= 0
 X1_1_0_16 : X_1_0_16 - P_16_1 - P_16_0 <= 0
 X2_1_0_16 : P_16_1 + P_16_0 - 2  X_1_0_16 <= 0
 X1_1_0_17 : X_1_0_17 - P_17_1 - P_17_0 <= 0
 X2_1_0_17 : P_17_1 + P_17_0 - 2  X_1_0_17 <= 0
 X1_1_0_18 : X_1_0_18 - P_18_1 - P_18_0 <= 0
 X2_1_0_18 : P_18_1 + P_18_0 - 2  X_1_0_18 <= 0
 X3_1_0 :  P_0_1 + P_0_0 - X_1_0_0  +  P_1_1 + P_1_0 - X_1_0_1  +  P_2_1 + P_2_0 - X_1_0_2  +  P_3_1 + P_3_0 - X_1_0_3  +  P_4_1 + P_4_0 - X_1_0_4  +  P_5_1 + P_5_0 - X_1_0_5  +  P_6_1 + P_6_0 - X_1_0_6  +  P_7_1 + P_7_0 - X_1_0_7  +  P_13_1 + P_13_0 - X_1_0_13  +  P_14_1 + P_14_0 - X_1_0_14  +  P_15_1 + P_15_0 - X_1_0_15  +  P_16_1 + P_16_0 - X_1_0_16  +  P_17_1 + P_17_0 - X_1_0_17  +  P_18_1 + P_18_0 - X_1_0_18  > 1
 X1_1_1_0 : X_1_1_0 - P_0_1 - P_0_1 <= 0
 X2_1_1_0 : P_0_1 + P_0_1 - 2  X_1_1_0 <= 0
 X1_1_1_1 : X_1_1_1 - P_1_1 - P_1_1 <= 0
 X2_1_1_1 : P_1_1 + P_1_1 - 2  X_1_1_1 <= 0
 X1_1_1_2 : X_1_1_2 - P_2_1 - P_2_1 <= 0
 X2_1_1_2 : P_2_1 + P_2_1 - 2  X_1_1_2 <= 0
 X1_1_1_3 : X_1_1_3 - P_3_1 - P_3_1 <= 0
 X2_1_1_3 : P_3_1 + P_3_1 - 2  X_1_1_3 <= 0
 X1_1_1_4 : X_1_1_4 - P_4_1 - P_4_1 <= 0
 X2_1_1_4 : P_4_1 + P_4_1 - 2  X_1_1_4 <= 0
 X1_1_1_5 : X_1_1_5 - P_5_1 - P_5_1 <= 0
 X2_1_1_5 : P_5_1 + P_5_1 - 2  X_1_1_5 <= 0
 X1_1_1_6 : X_1_1_6 - P_6_1 - P_6_1 <= 0
 X2_1_1_6 : P_6_1 + P_6_1 - 2  X_1_1_6 <= 0
 X1_1_1_7 : X_1_1_7 - P_7_1 - P_7_1 <= 0
 X2_1_1_7 : P_7_1 + P_7_1 - 2  X_1_1_7 <= 0
 X1_1_1_13 : X_1_1_13 - P_13_1 - P_13_1 <= 0
 X2_1_1_13 : P_13_1 + P_13_1 - 2  X_1_1_13 <= 0
 X1_1_1_14 : X_1_1_14 - P_14_1 - P_14_1 <= 0
 X2_1_1_14 : P_14_1 + P_14_1 - 2  X_1_1_14 <= 0
 X1_1_1_15 : X_1_1_15 - P_15_1 - P_15_1 <= 0
 X2_1_1_15 : P_15_1 + P_15_1 - 2  X_1_1_15 <= 0
 X1_1_1_16 : X_1_1_16 - P_16_1 - P_16_1 <= 0
 X2_1_1_16 : P_16_1 + P_16_1 - 2  X_1_1_16 <= 0
 X1_1_1_17 : X_1_1_17 - P_17_1 - P_17_1 <= 0
 X2_1_1_17 : P_17_1 + P_17_1 - 2  X_1_1_17 <= 0
 X1_1_1_18 : X_1_1_18 - P_18_1 - P_18_1 <= 0
 X2_1_1_18 : P_18_1 + P_18_1 - 2  X_1_1_18 <= 0
 X3_1_1 :  P_0_1 + P_0_1 - X_1_1_0  +  P_1_1 + P_1_1 - X_1_1_1  +  P_2_1 + P_2_1 - X_1_1_2  +  P_3_1 + P_3_1 - X_1_1_3  +  P_4_1 + P_4_1 - X_1_1_4  +  P_5_1 + P_5_1 - X_1_1_5  +  P_6_1 + P_6_1 - X_1_1_6  +  P_7_1 + P_7_1 - X_1_1_7  +  P_13_1 + P_13_1 - X_1_1_13  +  P_14_1 + P_14_1 - X_1_1_14  +  P_15_1 + P_15_1 - X_1_1_15  +  P_16_1 + P_16_1 - X_1_1_16  +  P_17_1 + P_17_1 - X_1_1_17  +  P_18_1 + P_18_1 - X_1_1_18  > 1
 X1_1_2_0 : X_1_2_0 - P_0_1 - P_0_2 <= 0
 X2_1_2_0 : P_0_1 + P_0_2 - 2  X_1_2_0 <= 0
 X1_1_2_1 : X_1_2_1 - P_1_1 - P_1_2 <= 0
 X2_1_2_1 : P_1_1 + P_1_2 - 2  X_1_2_1 <= 0
 X1_1_2_2 : X_1_2_2 - P_2_1 - P_2_2 <= 0
 X2_1_2_2 : P_2_1 + P_2_2 - 2  X_1_2_2 <= 0
 X1_1_2_3 : X_1_2_3 - P_3_1 - P_3_2 <= 0
 X2_1_2_3 : P_3_1 + P_3_2 - 2  X_1_2_3 <= 0
 X1_1_2_4 : X_1_2_4 - P_4_1 - P_4_2 <= 0
 X2_1_2_4 : P_4_1 + P_4_2 - 2  X_1_2_4 <= 0
 X1_1_2_5 : X_1_2_5 - P_5_1 - P_5_2 <= 0
 X2_1_2_5 : P_5_1 + P_5_2 - 2  X_1_2_5 <= 0
 X1_1_2_6 : X_1_2_6 - P_6_1 - P_6_2 <= 0
 X2_1_2_6 : P_6_1 + P_6_2 - 2  X_1_2_6 <= 0
 X1_1_2_7 : X_1_2_7 - P_7_1 - P_7_2 <= 0
 X2_1_2_7 : P_7_1 + P_7_2 - 2  X_1_2_7 <= 0
 X1_1_2_13 : X_1_2_13 - P_13_1 - P_13_2 <= 0
 X2_1_2_13 : P_13_1 + P_13_2 - 2  X_1_2_13 <= 0
 X1_1_2_14 : X_1_2_14 - P_14_1 - P_14_2 <= 0
 X2_1_2_14 : P_14_1 + P_14_2 - 2  X_1_2_14 <= 0
 X1_1_2_15 : X_1_2_15 - P_15_1 - P_15_2 <= 0
 X2_1_2_15 : P_15_1 + P_15_2 - 2  X_1_2_15 <= 0
 X1_1_2_16 : X_1_2_16 - P_16_1 - P_16_2 <= 0
 X2_1_2_16 : P_16_1 + P_16_2 - 2  X_1_2_16 <= 0
 X1_1_2_17 : X_1_2_17 - P_17_1 - P_17_2 <= 0
 X2_1_2_17 : P_17_1 + P_17_2 - 2  X_1_2_17 <= 0
 X1_1_2_18 : X_1_2_18 - P_18_1 - P_18_2 <= 0
 X2_1_2_18 : P_18_1 + P_18_2 - 2  X_1_2_18 <= 0
 X3_1_2 :  P_0_1 + P_0_2 - X_1_2_0  +  P_1_1 + P_1_2 - X_1_2_1  +  P_2_1 + P_2_2 - X_1_2_2  +  P_3_1 + P_3_2 - X_1_2_3  +  P_4_1 + P_4_2 - X_1_2_4  +  P_5_1 + P_5_2 - X_1_2_5  +  P_6_1 + P_6_2 - X_1_2_6  +  P_7_1 + P_7_2 - X_1_2_7  +  P_13_1 + P_13_2 - X_1_2_13  +  P_14_1 + P_14_2 - X_1_2_14  +  P_15_1 + P_15_2 - X_1_2_15  +  P_16_1 + P_16_2 - X_1_2_16  +  P_17_1 + P_17_2 - X_1_2_17  +  P_18_1 + P_18_2 - X_1_2_18  > 1
 X1_2_0_0 : X_2_0_0 - P_0_2 - P_0_0 <= 0
 X2_2_0_0 : P_0_2 + P_0_0 - 2  X_2_0_0 <= 0
 X1_2_0_1 : X_2_0_1 - P_1_2 - P_1_0 <= 0
 X2_2_0_1 : P_1_2 + P_1_0 - 2  X_2_0_1 <= 0
 X1_2_0_2 : X_2_0_2 - P_2_2 - P_2_0 <= 0
 X2_2_0_2 : P_2_2 + P_2_0 - 2  X_2_0_2 <= 0
 X1_2_0_3 : X_2_0_3 - P_3_2 - P_3_0 <= 0
 X2_2_0_3 : P_3_2 + P_3_0 - 2  X_2_0_3 <= 0
 X1_2_0_4 : X_2_0_4 - P_4_2 - P_4_0 <= 0
 X2_2_0_4 : P_4_2 + P_4_0 - 2  X_2_0_4 <= 0
 X1_2_0_5 : X_2_0_5 - P_5_2 - P_5_0 <= 0
 X2_2_0_5 : P_5_2 + P_5_0 - 2  X_2_0_5 <= 0
 X1_2_0_6 : X_2_0_6 - P_6_2 - P_6_0 <= 0
 X2_2_0_6 : P_6_2 + P_6_0 - 2  X_2_0_6 <= 0
 X1_2_0_7 : X_2_0_7 - P_7_2 - P_7_0 <= 0
 X2_2_0_7 : P_7_2 + P_7_0 - 2  X_2_0_7 <= 0
 X1_2_0_13 : X_2_0_13 - P_13_2 - P_13_0 <= 0
 X2_2_0_13 : P_13_2 + P_13_0 - 2  X_2_0_13 <= 0
 X1_2_0_14 : X_2_0_14 - P_14_2 - P_14_0 <= 0
 X2_2_0_14 : P_14_2 + P_14_0 - 2  X_2_0_14 <= 0
 X1_2_0_15 : X_2_0_15 - P_15_2 - P_15_0 <= 0
 X2_2_0_15 : P_15_2 + P_15_0 - 2  X_2_0_15 <= 0
 X1_2_0_16 : X_2_0_16 - P_16_2 - P_16_0 <= 0
 X2_2_0_16 : P_16_2 + P_16_0 - 2  X_2_0_16 <= 0
 X1_2_0_17 : X_2_0_17 - P_17_2 - P_17_0 <= 0
 X2_2_0_17 : P_17_2 + P_17_0 - 2  X_2_0_17 <= 0
 X1_2_0_18 : X_2_0_18 - P_18_2 - P_18_0 <= 0
 X2_2_0_18 : P_18_2 + P_18_0 - 2  X_2_0_18 <= 0
 X3_2_0 :  P_0_2 + P_0_0 - X_2_0_0  +  P_1_2 + P_1_0 - X_2_0_1  +  P_2_2 + P_2_0 - X_2_0_2  +  P_3_2 + P_3_0 - X_2_0_3  +  P_4_2 + P_4_0 - X_2_0_4  +  P_5_2 + P_5_0 - X_2_0_5  +  P_6_2 + P_6_0 - X_2_0_6  +  P_7_2 + P_7_0 - X_2_0_7  +  P_13_2 + P_13_0 - X_2_0_13  +  P_14_2 + P_14_0 - X_2_0_14  +  P_15_2 + P_15_0 - X_2_0_15  +  P_16_2 + P_16_0 - X_2_0_16  +  P_17_2 + P_17_0 - X_2_0_17  +  P_18_2 + P_18_0 - X_2_0_18  > 1
 X1_2_1_0 : X_2_1_0 - P_0_2 - P_0_1 <= 0
 X2_2_1_0 : P_0_2 + P_0_1 - 2  X_2_1_0 <= 0
 X1_2_1_1 : X_2_1_1 - P_1_2 - P_1_1 <= 0
 X2_2_1_1 : P_1_2 + P_1_1 - 2  X_2_1_1 <= 0
 X1_2_1_2 : X_2_1_2 - P_2_2 - P_2_1 <= 0
 X2_2_1_2 : P_2_2 + P_2_1 - 2  X_2_1_2 <= 0
 X1_2_1_3 : X_2_1_3 - P_3_2 - P_3_1 <= 0
 X2_2_1_3 : P_3_2 + P_3_1 - 2  X_2_1_3 <= 0
 X1_2_1_4 : X_2_1_4 - P_4_2 - P_4_1 <= 0
 X2_2_1_4 : P_4_2 + P_4_1 - 2  X_2_1_4 <= 0
 X1_2_1_5 : X_2_1_5 - P_5_2 - P_5_1 <= 0
 X2_2_1_5 : P_5_2 + P_5_1 - 2  X_2_1_5 <= 0
 X1_2_1_6 : X_2_1_6 - P_6_2 - P_6_1 <= 0
 X2_2_1_6 : P_6_2 + P_6_1 - 2  X_2_1_6 <= 0
 X1_2_1_7 : X_2_1_7 - P_7_2 - P_7_1 <= 0
 X2_2_1_7 : P_7_2 + P_7_1 - 2  X_2_1_7 <= 0
 X1_2_1_13 : X_2_1_13 - P_13_2 - P_13_1 <= 0
 X2_2_1_13 : P_13_2 + P_13_1 - 2  X_2_1_13 <= 0
 X1_2_1_14 : X_2_1_14 - P_14_2 - P_14_1 <= 0
 X2_2_1_14 : P_14_2 + P_14_1 - 2  X_2_1_14 <= 0
 X1_2_1_15 : X_2_1_15 - P_15_2 - P_15_1 <= 0
 X2_2_1_15 : P_15_2 + P_15_1 - 2  X_2_1_15 <= 0
 X1_2_1_16 : X_2_1_16 - P_16_2 - P_16_1 <= 0
 X2_2_1_16 : P_16_2 + P_16_1 - 2  X_2_1_16 <= 0
 X1_2_1_17 : X_2_1_17 - P_17_2 - P_17_1 <= 0
 X2_2_1_17 : P_17_2 + P_17_1 - 2  X_2_1_17 <= 0
 X1_2_1_18 : X_2_1_18 - P_18_2 - P_18_1 <= 0
 X2_2_1_18 : P_18_2 + P_18_1 - 2  X_2_1_18 <= 0
 X3_2_1 :  P_0_2 + P_0_1 - X_2_1_0  +  P_1_2 + P_1_1 - X_2_1_1  +  P_2_2 + P_2_1 - X_2_1_2  +  P_3_2 + P_3_1 - X_2_1_3  +  P_4_2 + P_4_1 - X_2_1_4  +  P_5_2 + P_5_1 - X_2_1_5  +  P_6_2 + P_6_1 - X_2_1_6  +  P_7_2 + P_7_1 - X_2_1_7  +  P_13_2 + P_13_1 - X_2_1_13  +  P_14_2 + P_14_1 - X_2_1_14  +  P_15_2 + P_15_1 - X_2_1_15  +  P_16_2 + P_16_1 - X_2_1_16  +  P_17_2 + P_17_1 - X_2_1_17  +  P_18_2 + P_18_1 - X_2_1_18  > 1
 X1_2_2_0 : X_2_2_0 - P_0_2 - P_0_2 <= 0
 X2_2_2_0 : P_0_2 + P_0_2 - 2  X_2_2_0 <= 0
 X1_2_2_1 : X_2_2_1 - P_1_2 - P_1_2 <= 0
 X2_2_2_1 : P_1_2 + P_1_2 - 2  X_2_2_1 <= 0
 X1_2_2_2 : X_2_2_2 - P_2_2 - P_2_2 <= 0
 X2_2_2_2 : P_2_2 + P_2_2 - 2  X_2_2_2 <= 0
 X1_2_2_3 : X_2_2_3 - P_3_2 - P_3_2 <= 0
 X2_2_2_3 : P_3_2 + P_3_2 - 2  X_2_2_3 <= 0
 X1_2_2_4 : X_2_2_4 - P_4_2 - P_4_2 <= 0
 X2_2_2_4 : P_4_2 + P_4_2 - 2  X_2_2_4 <= 0
 X1_2_2_5 : X_2_2_5 - P_5_2 - P_5_2 <= 0
 X2_2_2_5 : P_5_2 + P_5_2 - 2  X_2_2_5 <= 0
 X1_2_2_6 : X_2_2_6 - P_6_2 - P_6_2 <= 0
 X2_2_2_6 : P_6_2 + P_6_2 - 2  X_2_2_6 <= 0
 X1_2_2_7 : X_2_2_7 - P_7_2 - P_7_2 <= 0
 X2_2_2_7 : P_7_2 + P_7_2 - 2  X_2_2_7 <= 0
 X1_2_2_13 : X_2_2_13 - P_13_2 - P_13_2 <= 0
 X2_2_2_13 : P_13_2 + P_13_2 - 2  X_2_2_13 <= 0
 X1_2_2_14 : X_2_2_14 - P_14_2 - P_14_2 <= 0
 X2_2_2_14 : P_14_2 + P_14_2 - 2  X_2_2_14 <= 0
 X1_2_2_15 : X_2_2_15 - P_15_2 - P_15_2 <= 0
 X2_2_2_15 : P_15_2 + P_15_2 - 2  X_2_2_15 <= 0
 X1_2_2_16 : X_2_2_16 - P_16_2 - P_16_2 <= 0
 X2_2_2_16 : P_16_2 + P_16_2 - 2  X_2_2_16 <= 0
 X1_2_2_17 : X_2_2_17 - P_17_2 - P_17_2 <= 0
 X2_2_2_17 : P_17_2 + P_17_2 - 2  X_2_2_17 <= 0
 X1_2_2_18 : X_2_2_18 - P_18_2 - P_18_2 <= 0
 X2_2_2_18 : P_18_2 + P_18_2 - 2  X_2_2_18 <= 0
 X3_2_2 :  P_0_2 + P_0_2 - X_2_2_0  +  P_1_2 + P_1_2 - X_2_2_1  +  P_2_2 + P_2_2 - X_2_2_2  +  P_3_2 + P_3_2 - X_2_2_3  +  P_4_2 + P_4_2 - X_2_2_4  +  P_5_2 + P_5_2 - X_2_2_5  +  P_6_2 + P_6_2 - X_2_2_6  +  P_7_2 + P_7_2 - X_2_2_7  +  P_13_2 + P_13_2 - X_2_2_13  +  P_14_2 + P_14_2 - X_2_2_14  +  P_15_2 + P_15_2 - X_2_2_15  +  P_16_2 + P_16_2 - X_2_2_16  +  P_17_2 + P_17_2 - X_2_2_17  +  P_18_2 + P_18_2 - X_2_2_18  > 1
 Y1_0_0_0 : Y_0_0_0 - G_0_0 - P_0_0 <= 0
 Y2_0_0_0 : G_0_0 + P_0_0 - 2  Y_0_0_0 <= 0
 Y1_0_0_1 : Y_0_0_1 - G_1_0 - P_1_0 <= 0
 Y2_0_0_1 : G_1_0 + P_1_0 - 2  Y_0_0_1 <= 0
 Y1_0_0_2 : Y_0_0_2 - G_2_0 - P_2_0 <= 0
 Y2_0_0_2 : G_2_0 + P_2_0 - 2  Y_0_0_2 <= 0
 Y1_0_0_3 : Y_0_0_3 - G_3_0 - P_3_0 <= 0
 Y2_0_0_3 : G_3_0 + P_3_0 - 2  Y_0_0_3 <= 0
 Y1_0_0_13 : Y_0_0_13 - G_13_0 - P_13_0 <= 0
 Y2_0_0_13 : G_13_0 + P_13_0 - 2  Y_0_0_13 <= 0
 Y1_0_0_14 : Y_0_0_14 - G_14_0 - P_14_0 <= 0
 Y2_0_0_14 : G_14_0 + P_14_0 - 2  Y_0_0_14 <= 0
 Y1_0_0_15 : Y_0_0_15 - G_15_0 - P_15_0 <= 0
 Y2_0_0_15 : G_15_0 + P_15_0 - 2  Y_0_0_15 <= 0
 Y1_0_0_16 : Y_0_0_16 - G_16_0 - P_16_0 <= 0
 Y2_0_0_16 : G_16_0 + P_16_0 - 2  Y_0_0_16 <= 0
 Y3_0_0 :  G_0_0 + P_0_0 - Y_0_0_0  +  G_1_0 + P_1_0 - Y_0_0_1  +  G_2_0 + P_2_0 - Y_0_0_2  +  G_3_0 + P_3_0 - Y_0_0_3  +  G_13_0 + P_13_0 - Y_0_0_13  +  G_14_0 + P_14_0 - Y_0_0_14  +  G_15_0 + P_15_0 - Y_0_0_15  +  G_16_0 + P_16_0 - Y_0_0_16  > 1
 Y1_0_1_0 : Y_0_1_0 - G_0_0 - P_0_1 <= 0
 Y2_0_1_0 : G_0_0 + P_0_1 - 2  Y_0_1_0 <= 0
 Y1_0_1_1 : Y_0_1_1 - G_1_0 - P_1_1 <= 0
 Y2_0_1_1 : G_1_0 + P_1_1 - 2  Y_0_1_1 <= 0
 Y1_0_1_2 : Y_0_1_2 - G_2_0 - P_2_1 <= 0
 Y2_0_1_2 : G_2_0 + P_2_1 - 2  Y_0_1_2 <= 0
 Y1_0_1_3 : Y_0_1_3 - G_3_0 - P_3_1 <= 0
 Y2_0_1_3 : G_3_0 + P_3_1 - 2  Y_0_1_3 <= 0
 Y1_0_1_13 : Y_0_1_13 - G_13_0 - P_13_1 <= 0
 Y2_0_1_13 : G_13_0 + P_13_1 - 2  Y_0_1_13 <= 0
 Y1_0_1_14 : Y_0_1_14 - G_14_0 - P_14_1 <= 0
 Y2_0_1_14 : G_14_0 + P_14_1 - 2  Y_0_1_14 <= 0
 Y1_0_1_15 : Y_0_1_15 - G_15_0 - P_15_1 <= 0
 Y2_0_1_15 : G_15_0 + P_15_1 - 2  Y_0_1_15 <= 0
 Y1_0_1_16 : Y_0_1_16 - G_16_0 - P_16_1 <= 0
 Y2_0_1_16 : G_16_0 + P_16_1 - 2  Y_0_1_16 <= 0
 Y3_0_1 :  G_0_0 + P_0_1 - Y_0_1_0  +  G_1_0 + P_1_1 - Y_0_1_1  +  G_2_0 + P_2_1 - Y_0_1_2  +  G_3_0 + P_3_1 - Y_0_1_3  +  G_13_0 + P_13_1 - Y_0_1_13  +  G_14_0 + P_14_1 - Y_0_1_14  +  G_15_0 + P_15_1 - Y_0_1_15  +  G_16_0 + P_16_1 - Y_0_1_16  > 1
 Y1_0_2_0 : Y_0_2_0 - G_0_0 - P_0_2 <= 0
 Y2_0_2_0 : G_0_0 + P_0_2 - 2  Y_0_2_0 <= 0
 Y1_0_2_1 : Y_0_2_1 - G_1_0 - P_1_2 <= 0
 Y2_0_2_1 : G_1_0 + P_1_2 - 2  Y_0_2_1 <= 0
 Y1_0_2_2 : Y_0_2_2 - G_2_0 - P_2_2 <= 0
 Y2_0_2_2 : G_2_0 + P_2_2 - 2  Y_0_2_2 <= 0
 Y1_0_2_3 : Y_0_2_3 - G_3_0 - P_3_2 <= 0
 Y2_0_2_3 : G_3_0 + P_3_2 - 2  Y_0_2_3 <= 0
 Y1_0_2_13 : Y_0_2_13 - G_13_0 - P_13_2 <= 0
 Y2_0_2_13 : G_13_0 + P_13_2 - 2  Y_0_2_13 <= 0
 Y1_0_2_14 : Y_0_2_14 - G_14_0 - P_14_2 <= 0
 Y2_0_2_14 : G_14_0 + P_14_2 - 2  Y_0_2_14 <= 0
 Y1_0_2_15 : Y_0_2_15 - G_15_0 - P_15_2 <= 0
 Y2_0_2_15 : G_15_0 + P_15_2 - 2  Y_0_2_15 <= 0
 Y1_0_2_16 : Y_0_2_16 - G_16_0 - P_16_2 <= 0
 Y2_0_2_16 : G_16_0 + P_16_2 - 2  Y_0_2_16 <= 0
 Y3_0_2 :  G_0_0 + P_0_2 - Y_0_2_0  +  G_1_0 + P_1_2 - Y_0_2_1  +  G_2_0 + P_2_2 - Y_0_2_2  +  G_3_0 + P_3_2 - Y_0_2_3  +  G_13_0 + P_13_2 - Y_0_2_13  +  G_14_0 + P_14_2 - Y_0_2_14  +  G_15_0 + P_15_2 - Y_0_2_15  +  G_16_0 + P_16_2 - Y_0_2_16  > 1
 Y1_1_0_0 : Y_1_0_0 - G_0_1 - P_0_0 <= 0
 Y2_1_0_0 : G_0_1 + P_0_0 - 2  Y_1_0_0 <= 0
 Y1_1_0_1 : Y_1_0_1 - G_1_1 - P_1_0 <= 0
 Y2_1_0_1 : G_1_1 + P_1_0 - 2  Y_1_0_1 <= 0
 Y1_1_0_2 : Y_1_0_2 - G_2_1 - P_2_0 <= 0
 Y2_1_0_2 : G_2_1 + P_2_0 - 2  Y_1_0_2 <= 0
 Y1_1_0_13 : Y_1_0_13 - G_13_1 - P_13_0 <= 0
 Y2_1_0_13 : G_13_1 + P_13_0 - 2  Y_1_0_13 <= 0
 Y1_1_0_14 : Y_1_0_14 - G_14_1 - P_14_0 <= 0
 Y2_1_0_14 : G_14_1 + P_14_0 - 2  Y_1_0_14 <= 0
 Y3_1_0 :  G_0_1 + P_0_0 - Y_1_0_0  +  G_1_1 + P_1_0 - Y_1_0_1  +  G_2_1 + P_2_0 - Y_1_0_2  +  G_13_1 + P_13_0 - Y_1_0_13  +  G_14_1 + P_14_0 - Y_1_0_14  > 1
 Y1_1_1_0 : Y_1_1_0 - G_0_1 - P_0_1 <= 0
 Y2_1_1_0 : G_0_1 + P_0_1 - 2  Y_1_1_0 <= 0
 Y1_1_1_1 : Y_1_1_1 - G_1_1 - P_1_1 <= 0
 Y2_1_1_1 : G_1_1 + P_1_1 - 2  Y_1_1_1 <= 0
 Y1_1_1_2 : Y_1_1_2 - G_2_1 - P_2_1 <= 0
 Y2_1_1_2 : G_2_1 + P_2_1 - 2  Y_1_1_2 <= 0
 Y1_1_1_13 : Y_1_1_13 - G_13_1 - P_13_1 <= 0
 Y2_1_1_13 : G_13_1 + P_13_1 - 2  Y_1_1_13 <= 0
 Y1_1_1_14 : Y_1_1_14 - G_14_1 - P_14_1 <= 0
 Y2_1_1_14 : G_14_1 + P_14_1 - 2  Y_1_1_14 <= 0
 Y3_1_1 :  G_0_1 + P_0_1 - Y_1_1_0  +  G_1_1 + P_1_1 - Y_1_1_1  +  G_2_1 + P_2_1 - Y_1_1_2  +  G_13_1 + P_13_1 - Y_1_1_13  +  G_14_1 + P_14_1 - Y_1_1_14  > 1
 Y1_1_2_0 : Y_1_2_0 - G_0_1 - P_0_2 <= 0
 Y2_1_2_0 : G_0_1 + P_0_2 - 2  Y_1_2_0 <= 0
 Y1_1_2_1 : Y_1_2_1 - G_1_1 - P_1_2 <= 0
 Y2_1_2_1 : G_1_1 + P_1_2 - 2  Y_1_2_1 <= 0
 Y1_1_2_2 : Y_1_2_2 - G_2_1 - P_2_2 <= 0
 Y2_1_2_2 : G_2_1 + P_2_2 - 2  Y_1_2_2 <= 0
 Y1_1_2_13 : Y_1_2_13 - G_13_1 - P_13_2 <= 0
 Y2_1_2_13 : G_13_1 + P_13_2 - 2  Y_1_2_13 <= 0
 Y1_1_2_14 : Y_1_2_14 - G_14_1 - P_14_2 <= 0
 Y2_1_2_14 : G_14_1 + P_14_2 - 2  Y_1_2_14 <= 0
 Y3_1_2 :  G_0_1 + P_0_2 - Y_1_2_0  +  G_1_1 + P_1_2 - Y_1_2_1  +  G_2_1 + P_2_2 - Y_1_2_2  +  G_13_1 + P_13_2 - Y_1_2_13  +  G_14_1 + P_14_2 - Y_1_2_14  > 1
 Y1_2_0_0 : Y_2_0_0 - G_0_2 - P_0_0 <= 0
 Y2_2_0_0 : G_0_2 + P_0_0 - 2  Y_2_0_0 <= 0
 Y1_2_0_1 : Y_2_0_1 - G_1_2 - P_1_0 <= 0
 Y2_2_0_1 : G_1_2 + P_1_0 - 2  Y_2_0_1 <= 0
 Y1_2_0_2 : Y_2_0_2 - G_2_2 - P_2_0 <= 0
 Y2_2_0_2 : G_2_2 + P_2_0 - 2  Y_2_0_2 <= 0
 Y1_2_0_13 : Y_2_0_13 - G_13_2 - P_13_0 <= 0
 Y2_2_0_13 : G_13_2 + P_13_0 - 2  Y_2_0_13 <= 0
 Y1_2_0_14 : Y_2_0_14 - G_14_2 - P_14_0 <= 0
 Y2_2_0_14 : G_14_2 + P_14_0 - 2  Y_2_0_14 <= 0
 Y3_2_0 :  G_0_2 + P_0_0 - Y_2_0_0  +  G_1_2 + P_1_0 - Y_2_0_1  +  G_2_2 + P_2_0 - Y_2_0_2  +  G_13_2 + P_13_0 - Y_2_0_13  +  G_14_2 + P_14_0 - Y_2_0_14  > 1
 Y1_2_1_0 : Y_2_1_0 - G_0_2 - P_0_1 <= 0
 Y2_2_1_0 : G_0_2 + P_0_1 - 2  Y_2_1_0 <= 0
 Y1_2_1_1 : Y_2_1_1 - G_1_2 - P_1_1 <= 0
 Y2_2_1_1 : G_1_2 + P_1_1 - 2  Y_2_1_1 <= 0
 Y1_2_1_2 : Y_2_1_2 - G_2_2 - P_2_1 <= 0
 Y2_2_1_2 : G_2_2 + P_2_1 - 2  Y_2_1_2 <= 0
 Y1_2_1_13 : Y_2_1_13 - G_13_2 - P_13_1 <= 0
 Y2_2_1_13 : G_13_2 + P_13_1 - 2  Y_2_1_13 <= 0
 Y1_2_1_14 : Y_2_1_14 - G_14_2 - P_14_1 <= 0
 Y2_2_1_14 : G_14_2 + P_14_1 - 2  Y_2_1_14 <= 0
 Y3_2_1 :  G_0_2 + P_0_1 - Y_2_1_0  +  G_1_2 + P_1_1 - Y_2_1_1  +  G_2_2 + P_2_1 - Y_2_1_2  +  G_13_2 + P_13_1 - Y_2_1_13  +  G_14_2 + P_14_1 - Y_2_1_14  > 1
 Y1_2_2_0 : Y_2_2_0 - G_0_2 - P_0_2 <= 0
 Y2_2_2_0 : G_0_2 + P_0_2 - 2  Y_2_2_0 <= 0
 Y1_2_2_1 : Y_2_2_1 - G_1_2 - P_1_2 <= 0
 Y2_2_2_1 : G_1_2 + P_1_2 - 2  Y_2_2_1 <= 0
 Y1_2_2_2 : Y_2_2_2 - G_2_2 - P_2_2 <= 0
 Y2_2_2_2 : G_2_2 + P_2_2 - 2  Y_2_2_2 <= 0
 Y1_2_2_13 : Y_2_2_13 - G_13_2 - P_13_2 <= 0
 Y2_2_2_13 : G_13_2 + P_13_2 - 2  Y_2_2_13 <= 0
 Y1_2_2_14 : Y_2_2_14 - G_14_2 - P_14_2 <= 0
 Y2_2_2_14 : G_14_2 + P_14_2 - 2  Y_2_2_14 <= 0
 Y3_2_2 :  G_0_2 + P_0_2 - Y_2_2_0  +  G_1_2 + P_1_2 - Y_2_2_1  +  G_2_2 + P_2_2 - Y_2_2_2  +  G_13_2 + P_13_2 - Y_2_2_13  +  G_14_2 + P_14_2 - Y_2_2_14  > 1
 M1_0_0 :  R_0_0_0  +  R_0_1_0  +  R_0_2_0  +  R_0_3_0  +  R_0_4_0  +  R_0_5_0  +  R_0_6_0  +  R_0_7_0  +  R_0_13_0  +  R_0_14_0  +  R_0_15_0  +  R_0_16_0  +  R_0_17_0  +  R_0_18_0  - M_0_0 >= 0
 M2_0_0 :  R_0_0_0  +  R_0_1_0  +  R_0_2_0  +  R_0_3_0  +  R_0_4_0  +  R_0_5_0  +  R_0_6_0  +  R_0_7_0  +  R_0_13_0  +  R_0_14_0  +  R_0_15_0  +  R_0_16_0  +  R_0_17_0  +  R_0_18_0  - 14  M_0_0 <=0 
 M1_0_1 :  R_0_1_1  - M_0_1 >= 0
 M2_0_1 :  R_0_1_1  - 14  M_0_1 <=0 
 M1_0_2 :  R_0_2_2  - M_0_2 >= 0
 M2_0_2 :  R_0_2_2  - 14  M_0_2 <=0 
 M1_0_3 :  R_0_3_3  - M_0_3 >= 0
 M2_0_3 :  R_0_3_3  - 14  M_0_3 <=0 
 M1_0_4 :  R_0_4_4  - M_0_4 >= 0
 M2_0_4 :  R_0_4_4  - 14  M_0_4 <=0 
 M1_0_5 :  R_0_5_5  - M_0_5 >= 0
 M2_0_5 :  R_0_5_5  - 14  M_0_5 <=0 
 M1_0_6 :  R_0_6_6  - M_0_6 >= 0
 M2_0_6 :  R_0_6_6  - 14  M_0_6 <=0 
 M1_0_7 :  R_0_7_7  - M_0_7 >= 0
 M2_0_7 :  R_0_7_7  - 14  M_0_7 <=0 
 M1_0_13 :  R_0_13_13  - M_0_13 >= 0
 M2_0_13 :  R_0_13_13  - 14  M_0_13 <=0 
 M1_0_14 :  R_0_14_14  - M_0_14 >= 0
 M2_0_14 :  R_0_14_14  - 14  M_0_14 <=0 
 M1_0_15 :  R_0_15_15  - M_0_15 >= 0
 M2_0_15 :  R_0_15_15  - 14  M_0_15 <=0 
 M1_0_16 :  R_0_16_16  - M_0_16 >= 0
 M2_0_16 :  R_0_16_16  - 14  M_0_16 <=0 
 M1_0_17 :  R_0_17_17  - M_0_17 >= 0
 M2_0_17 :  R_0_17_17  - 14  M_0_17 <=0 
 M1_0_18 :  R_0_18_18  - M_0_18 >= 0
 M2_0_18 :  R_0_18_18  - 14  M_0_18 <=0 
 M1_1_0 :  R_1_0_0  - M_1_0 >= 0
 M2_1_0 :  R_1_0_0  - 14  M_1_0 <=0 
 M1_1_1 :  R_1_0_1  +  R_1_1_1  +  R_1_2_1  +  R_1_3_1  +  R_1_4_1  +  R_1_5_1  +  R_1_6_1  +  R_1_7_1  +  R_1_13_1  +  R_1_14_1  +  R_1_15_1  +  R_1_16_1  +  R_1_17_1  +  R_1_18_1  - M_1_1 >= 0
 M2_1_1 :  R_1_0_1  +  R_1_1_1  +  R_1_2_1  +  R_1_3_1  +  R_1_4_1  +  R_1_5_1  +  R_1_6_1  +  R_1_7_1  +  R_1_13_1  +  R_1_14_1  +  R_1_15_1  +  R_1_16_1  +  R_1_17_1  +  R_1_18_1  - 14  M_1_1 <=0 
 M1_1_2 :  R_1_2_2  - M_1_2 >= 0
 M2_1_2 :  R_1_2_2  - 14  M_1_2 <=0 
 M1_1_3 :  R_1_3_3  - M_1_3 >= 0
 M2_1_3 :  R_1_3_3  - 14  M_1_3 <=0 
 M1_1_4 :  R_1_4_4  - M_1_4 >= 0
 M2_1_4 :  R_1_4_4  - 14  M_1_4 <=0 
 M1_1_5 :  R_1_5_5  - M_1_5 >= 0
 M2_1_5 :  R_1_5_5  - 14  M_1_5 <=0 
 M1_1_6 :  R_1_6_6  - M_1_6 >= 0
 M2_1_6 :  R_1_6_6  - 14  M_1_6 <=0 
 M1_1_7 :  R_1_7_7  - M_1_7 >= 0
 M2_1_7 :  R_1_7_7  - 14  M_1_7 <=0 
 M1_1_13 :  R_1_13_13  - M_1_13 >= 0
 M2_1_13 :  R_1_13_13  - 14  M_1_13 <=0 
 M1_1_14 :  R_1_14_14  - M_1_14 >= 0
 M2_1_14 :  R_1_14_14  - 14  M_1_14 <=0 
 M1_1_15 :  R_1_15_15  - M_1_15 >= 0
 M2_1_15 :  R_1_15_15  - 14  M_1_15 <=0 
 M1_1_16 :  R_1_16_16  - M_1_16 >= 0
 M2_1_16 :  R_1_16_16  - 14  M_1_16 <=0 
 M1_1_17 :  R_1_17_17  - M_1_17 >= 0
 M2_1_17 :  R_1_17_17  - 14  M_1_17 <=0 
 M1_1_18 :  R_1_18_18  - M_1_18 >= 0
 M2_1_18 :  R_1_18_18  - 14  M_1_18 <=0 
 M1_2_0 :  R_2_0_0  - M_2_0 >= 0
 M2_2_0 :  R_2_0_0  - 14  M_2_0 <=0 
 M1_2_1 :  R_2_1_1  - M_2_1 >= 0
 M2_2_1 :  R_2_1_1  - 14  M_2_1 <=0 
 M1_2_2 :  R_2_0_2  +  R_2_1_2  +  R_2_2_2  +  R_2_3_2  +  R_2_4_2  +  R_2_5_2  +  R_2_6_2  +  R_2_7_2  +  R_2_13_2  +  R_2_14_2  +  R_2_15_2  +  R_2_16_2  +  R_2_17_2  +  R_2_18_2  - M_2_2 >= 0
 M2_2_2 :  R_2_0_2  +  R_2_1_2  +  R_2_2_2  +  R_2_3_2  +  R_2_4_2  +  R_2_5_2  +  R_2_6_2  +  R_2_7_2  +  R_2_13_2  +  R_2_14_2  +  R_2_15_2  +  R_2_16_2  +  R_2_17_2  +  R_2_18_2  - 14  M_2_2 <=0 
 M1_2_3 :  R_2_3_3  - M_2_3 >= 0
 M2_2_3 :  R_2_3_3  - 14  M_2_3 <=0 
 M1_2_4 :  R_2_4_4  - M_2_4 >= 0
 M2_2_4 :  R_2_4_4  - 14  M_2_4 <=0 
 M1_2_5 :  R_2_5_5  - M_2_5 >= 0
 M2_2_5 :  R_2_5_5  - 14  M_2_5 <=0 
 M1_2_6 :  R_2_6_6  - M_2_6 >= 0
 M2_2_6 :  R_2_6_6  - 14  M_2_6 <=0 
 M1_2_7 :  R_2_7_7  - M_2_7 >= 0
 M2_2_7 :  R_2_7_7  - 14  M_2_7 <=0 
 M1_2_13 :  R_2_13_13  - M_2_13 >= 0
 M2_2_13 :  R_2_13_13  - 14  M_2_13 <=0 
 M1_2_14 :  R_2_14_14  - M_2_14 >= 0
 M2_2_14 :  R_2_14_14  - 14  M_2_14 <=0 
 M1_2_15 :  R_2_15_15  - M_2_15 >= 0
 M2_2_15 :  R_2_15_15  - 14  M_2_15 <=0 
 M1_2_16 :  R_2_16_16  - M_2_16 >= 0
 M2_2_16 :  R_2_16_16  - 14  M_2_16 <=0 
 M1_2_17 :  R_2_17_17  - M_2_17 >= 0
 M2_2_17 :  R_2_17_17  - 14  M_2_17 <=0 
 M1_2_18 :  R_2_18_18  - M_2_18 >= 0
 M2_2_18 :  R_2_18_18  - 14  M_2_18 <=0 
 P1_0_0 :  R_0_0_0  - P_0_0 >= 0
 P2_0_0 :  R_0_0_0  - 14  P_0_0 <= 0
 P1_1_0 :  R_0_1_0  +  R_0_1_1  - P_1_0 >= 0
 P2_1_0 :  R_0_1_0  +  R_0_1_1  - 14  P_1_0 <= 0
 P1_2_0 :  R_0_2_0  +  R_0_2_2  - P_2_0 >= 0
 P2_2_0 :  R_0_2_0  +  R_0_2_2  - 14  P_2_0 <= 0
 P1_3_0 :  R_0_3_0  +  R_0_3_3  - P_3_0 >= 0
 P2_3_0 :  R_0_3_0  +  R_0_3_3  - 14  P_3_0 <= 0
 P1_4_0 :  R_0_4_0  +  R_0_4_4  - P_4_0 >= 0
 P2_4_0 :  R_0_4_0  +  R_0_4_4  - 14  P_4_0 <= 0
 P1_5_0 :  R_0_5_0  +  R_0_5_5  - P_5_0 >= 0
 P2_5_0 :  R_0_5_0  +  R_0_5_5  - 14  P_5_0 <= 0
 P1_6_0 :  R_0_6_0  +  R_0_6_6  - P_6_0 >= 0
 P2_6_0 :  R_0_6_0  +  R_0_6_6  - 14  P_6_0 <= 0
 P1_7_0 :  R_0_7_0  +  R_0_7_7  - P_7_0 >= 0
 P2_7_0 :  R_0_7_0  +  R_0_7_7  - 14  P_7_0 <= 0
 P1_13_0 :  R_0_13_0  +  R_0_13_13  - P_13_0 >= 0
 P2_13_0 :  R_0_13_0  +  R_0_13_13  - 14  P_13_0 <= 0
 P1_14_0 :  R_0_14_0  +  R_0_14_14  - P_14_0 >= 0
 P2_14_0 :  R_0_14_0  +  R_0_14_14  - 14  P_14_0 <= 0
 P1_15_0 :  R_0_15_0  +  R_0_15_15  - P_15_0 >= 0
 P2_15_0 :  R_0_15_0  +  R_0_15_15  - 14  P_15_0 <= 0
 P1_16_0 :  R_0_16_0  +  R_0_16_16  - P_16_0 >= 0
 P2_16_0 :  R_0_16_0  +  R_0_16_16  - 14  P_16_0 <= 0
 P1_17_0 :  R_0_17_0  +  R_0_17_17  - P_17_0 >= 0
 P2_17_0 :  R_0_17_0  +  R_0_17_17  - 14  P_17_0 <= 0
 P1_18_0 :  R_0_18_0  +  R_0_18_18  - P_18_0 >= 0
 P2_18_0 :  R_0_18_0  +  R_0_18_18  - 14  P_18_0 <= 0
 P1_0_1 :  R_1_0_0  +  R_1_0_1  - P_0_1 >= 0
 P2_0_1 :  R_1_0_0  +  R_1_0_1  - 14  P_0_1 <= 0
 P1_1_1 :  R_1_1_1  - P_1_1 >= 0
 P2_1_1 :  R_1_1_1  - 14  P_1_1 <= 0
 P1_2_1 :  R_1_2_1  +  R_1_2_2  - P_2_1 >= 0
 P2_2_1 :  R_1_2_1  +  R_1_2_2  - 14  P_2_1 <= 0
 P1_3_1 :  R_1_3_1  +  R_1_3_3  - P_3_1 >= 0
 P2_3_1 :  R_1_3_1  +  R_1_3_3  - 14  P_3_1 <= 0
 P1_4_1 :  R_1_4_1  +  R_1_4_4  - P_4_1 >= 0
 P2_4_1 :  R_1_4_1  +  R_1_4_4  - 14  P_4_1 <= 0
 P1_5_1 :  R_1_5_1  +  R_1_5_5  - P_5_1 >= 0
 P2_5_1 :  R_1_5_1  +  R_1_5_5  - 14  P_5_1 <= 0
 P1_6_1 :  R_1_6_1  +  R_1_6_6  - P_6_1 >= 0
 P2_6_1 :  R_1_6_1  +  R_1_6_6  - 14  P_6_1 <= 0
 P1_7_1 :  R_1_7_1  +  R_1_7_7  - P_7_1 >= 0
 P2_7_1 :  R_1_7_1  +  R_1_7_7  - 14  P_7_1 <= 0
 P1_13_1 :  R_1_13_1  +  R_1_13_13  - P_13_1 >= 0
 P2_13_1 :  R_1_13_1  +  R_1_13_13  - 14  P_13_1 <= 0
 P1_14_1 :  R_1_14_1  +  R_1_14_14  - P_14_1 >= 0
 P2_14_1 :  R_1_14_1  +  R_1_14_14  - 14  P_14_1 <= 0
 P1_15_1 :  R_1_15_1  +  R_1_15_15  - P_15_1 >= 0
 P2_15_1 :  R_1_15_1  +  R_1_15_15  - 14  P_15_1 <= 0
 P1_16_1 :  R_1_16_1  +  R_1_16_16  - P_16_1 >= 0
 P2_16_1 :  R_1_16_1  +  R_1_16_16  - 14  P_16_1 <= 0
 P1_17_1 :  R_1_17_1  +  R_1_17_17  - P_17_1 >= 0
 P2_17_1 :  R_1_17_1  +  R_1_17_17  - 14  P_17_1 <= 0
 P1_18_1 :  R_1_18_1  +  R_1_18_18  - P_18_1 >= 0
 P2_18_1 :  R_1_18_1  +  R_1_18_18  - 14  P_18_1 <= 0
 P1_0_2 :  R_2_0_0  +  R_2_0_2  - P_0_2 >= 0
 P2_0_2 :  R_2_0_0  +  R_2_0_2  - 14  P_0_2 <= 0
 P1_1_2 :  R_2_1_1  +  R_2_1_2  - P_1_2 >= 0
 P2_1_2 :  R_2_1_1  +  R_2_1_2  - 14  P_1_2 <= 0
 P1_2_2 :  R_2_2_2  - P_2_2 >= 0
 P2_2_2 :  R_2_2_2  - 14  P_2_2 <= 0
 P1_3_2 :  R_2_3_2  +  R_2_3_3  - P_3_2 >= 0
 P2_3_2 :  R_2_3_2  +  R_2_3_3  - 14  P_3_2 <= 0
 P1_4_2 :  R_2_4_2  +  R_2_4_4  - P_4_2 >= 0
 P2_4_2 :  R_2_4_2  +  R_2_4_4  - 14  P_4_2 <= 0
 P1_5_2 :  R_2_5_2  +  R_2_5_5  - P_5_2 >= 0
 P2_5_2 :  R_2_5_2  +  R_2_5_5  - 14  P_5_2 <= 0
 P1_6_2 :  R_2_6_2  +  R_2_6_6  - P_6_2 >= 0
 P2_6_2 :  R_2_6_2  +  R_2_6_6  - 14  P_6_2 <= 0
 P1_7_2 :  R_2_7_2  +  R_2_7_7  - P_7_2 >= 0
 P2_7_2 :  R_2_7_2  +  R_2_7_7  - 14  P_7_2 <= 0
 P1_13_2 :  R_2_13_2  +  R_2_13_13  - P_13_2 >= 0
 P2_13_2 :  R_2_13_2  +  R_2_13_13  - 14  P_13_2 <= 0
 P1_14_2 :  R_2_14_2  +  R_2_14_14  - P_14_2 >= 0
 P2_14_2 :  R_2_14_2  +  R_2_14_14  - 14  P_14_2 <= 0
 P1_15_2 :  R_2_15_2  +  R_2_15_15  - P_15_2 >= 0
 P2_15_2 :  R_2_15_2  +  R_2_15_15  - 14  P_15_2 <= 0
 P1_16_2 :  R_2_16_2  +  R_2_16_16  - P_16_2 >= 0
 P2_16_2 :  R_2_16_2  +  R_2_16_16  - 14  P_16_2 <= 0
 P1_17_2 :  R_2_17_2  +  R_2_17_17  - P_17_2 >= 0
 P2_17_2 :  R_2_17_2  +  R_2_17_17  - 14  P_17_2 <= 0
 P1_18_2 :  R_2_18_2  +  R_2_18_18  - P_18_2 >= 0
 P2_18_2 :  R_2_18_2  +  R_2_18_18  - 14  P_18_2 <= 0
 C1_0 :  G_0_0  +  P_0_0  +  G_0_1  +  P_0_1  +  G_0_2  +  P_0_2  - C_0 >= 0
 C1_1 :  G_1_0  +  P_1_0  +  G_1_1  +  P_1_1  +  G_1_2  +  P_1_2  - C_1 >= 0
 C1_2 :  G_2_0  +  P_2_0  +  G_2_1  +  P_2_1  +  G_2_2  +  P_2_2  - C_2 >= 0
 C1_3 :  G_3_0  +  P_3_0  +  P_3_1  +  P_3_2  - C_3 >= 0
 C1_4 :  P_4_0  +  P_4_1  +  P_4_2  - C_4 >= 0
 C1_5 :  P_5_0  +  P_5_1  +  P_5_2  - C_5 >= 0
 C1_6 :  P_6_0  +  P_6_1  +  P_6_2  - C_6 >= 0
 C1_7 :  P_7_0  +  P_7_1  +  P_7_2  - C_7 >= 0
 C1_13 :  G_13_0  +  P_13_0  +  G_13_1  +  P_13_1  +  G_13_2  +  P_13_2  - C_13 >= 0
 C1_14 :  G_14_0  +  P_14_0  +  G_14_1  +  P_14_1  +  G_14_2  +  P_14_2  - C_14 >= 0
 C1_15 :  G_15_0  +  P_15_0  +  P_15_1  +  P_15_2  - C_15 >= 0
 C1_16 :  G_16_0  +  P_16_0  +  P_16_1  +  P_16_2  - C_16 >= 0
 C1_17 :  P_17_0  +  P_17_1  +  P_17_2  - C_17 >= 0
 C1_18 :  P_18_0  +  P_18_1  +  P_18_2  - C_18 >= 0
 C2_0 :  G_0_0  +  P_0_0  +  G_0_1  +  P_0_1  +  G_0_2  +  P_0_2  - 28 C_0 <= 0
 C2_1 :  G_1_0  +  P_1_0  +  G_1_1  +  P_1_1  +  G_1_2  +  P_1_2  - 28 C_1 <= 0
 C2_2 :  G_2_0  +  P_2_0  +  G_2_1  +  P_2_1  +  G_2_2  +  P_2_2  - 28 C_2 <= 0
 C2_3 :  G_3_0  +  P_3_0  +  P_3_1  +  P_3_2  - 28 C_3 <= 0
 C2_4 :  P_4_0  +  P_4_1  +  P_4_2  - 28 C_4 <= 0
 C2_5 :  P_5_0  +  P_5_1  +  P_5_2  - 28 C_5 <= 0
 C2_6 :  P_6_0  +  P_6_1  +  P_6_2  - 28 C_6 <= 0
 C2_7 :  P_7_0  +  P_7_1  +  P_7_2  - 28 C_7 <= 0
 C2_13 :  G_13_0  +  P_13_0  +  G_13_1  +  P_13_1  +  G_13_2  +  P_13_2  - 28 C_13 <= 0
 C2_14 :  G_14_0  +  P_14_0  +  G_14_1  +  P_14_1  +  G_14_2  +  P_14_2  - 28 C_14 <= 0
 C2_15 :  G_15_0  +  P_15_0  +  P_15_1  +  P_15_2  - 28 C_15 <= 0
 C2_16 :  G_16_0  +  P_16_0  +  P_16_1  +  P_16_2  - 28 C_16 <= 0
 C2_17 :  P_17_0  +  P_17_1  +  P_17_2  - 28 C_17 <= 0
 C2_18 :  P_18_0  +  P_18_1  +  P_18_2  - 28 C_18 <= 0

BINARY
 G_0_0
 G_1_0
 G_2_0
 G_3_0
 G_13_0
 G_14_0
 G_15_0
 G_16_0
 G_0_1
 G_1_1
 G_2_1
 G_13_1
 G_14_1
 G_0_2
 G_1_2
 G_2_2
 G_13_2
 G_14_2
 P_0_0
 P_1_0
 P_2_0
 P_3_0
 P_4_0
 P_5_0
 P_6_0
 P_7_0
 P_13_0
 P_14_0
 P_15_0
 P_16_0
 P_17_0
 P_18_0
 P_0_1
 P_1_1
 P_2_1
 P_3_1
 P_4_1
 P_5_1
 P_6_1
 P_7_1
 P_13_1
 P_14_1
 P_15_1
 P_16_1
 P_17_1
 P_18_1
 P_0_2
 P_1_2
 P_2_2
 P_3_2
 P_4_2
 P_5_2
 P_6_2
 P_7_2
 P_13_2
 P_14_2
 P_15_2
 P_16_2
 P_17_2
 P_18_2
 R_0_0_0
 R_0_1_0
 R_0_1_1
 R_0_2_0
 R_0_2_2
 R_0_3_0
 R_0_3_3
 R_0_4_0
 R_0_4_4
 R_0_5_0
 R_0_5_5
 R_0_6_0
 R_0_6_6
 R_0_7_0
 R_0_7_7
 R_0_13_0
 R_0_13_13
 R_0_14_0
 R_0_14_14
 R_0_15_0
 R_0_15_15
 R_0_16_0
 R_0_16_16
 R_0_17_0
 R_0_17_17
 R_0_18_0
 R_0_18_18
 R_1_0_0
 R_1_0_1
 R_1_1_1
 R_1_2_1
 R_1_2_2
 R_1_3_1
 R_1_3_3
 R_1_4_1
 R_1_4_4
 R_1_5_1
 R_1_5_5
 R_1_6_1
 R_1_6_6
 R_1_7_1
 R_1_7_7
 R_1_13_1
 R_1_13_13
 R_1_14_1
 R_1_14_14
 R_1_15_1
 R_1_15_15
 R_1_16_1
 R_1_16_16
 R_1_17_1
 R_1_17_17
 R_1_18_1
 R_1_18_18
 R_2_0_0
 R_2_0_2
 R_2_1_1
 R_2_1_2
 R_2_2_2
 R_2_3_2
 R_2_3_3
 R_2_4_2
 R_2_4_4
 R_2_5_2
 R_2_5_5
 R_2_6_2
 R_2_6_6
 R_2_7_2
 R_2_7_7
 R_2_13_2
 R_2_13_13
 R_2_14_2
 R_2_14_14
 R_2_15_2
 R_2_15_15
 R_2_16_2
 R_2_16_16
 R_2_17_2
 R_2_17_17
 R_2_18_2
 R_2_18_18
 X_0_0_0
 X_0_0_1
 X_0_0_2
 X_0_0_3
 X_0_0_4
 X_0_0_5
 X_0_0_6
 X_0_0_7
 X_0_0_13
 X_0_0_14
 X_0_0_15
 X_0_0_16
 X_0_0_17
 X_0_0_18
 X_0_1_0
 X_0_1_1
 X_0_1_2
 X_0_1_3
 X_0_1_4
 X_0_1_5
 X_0_1_6
 X_0_1_7
 X_0_1_13
 X_0_1_14
 X_0_1_15
 X_0_1_16
 X_0_1_17
 X_0_1_18
 X_0_2_0
 X_0_2_1
 X_0_2_2
 X_0_2_3
 X_0_2_4
 X_0_2_5
 X_0_2_6
 X_0_2_7
 X_0_2_13
 X_0_2_14
 X_0_2_15
 X_0_2_16
 X_0_2_17
 X_0_2_18
 X_1_0_0
 X_1_0_1
 X_1_0_2
 X_1_0_3
 X_1_0_4
 X_1_0_5
 X_1_0_6
 X_1_0_7
 X_1_0_13
 X_1_0_14
 X_1_0_15
 X_1_0_16
 X_1_0_17
 X_1_0_18
 X_1_1_0
 X_1_1_1
 X_1_1_2
 X_1_1_3
 X_1_1_4
 X_1_1_5
 X_1_1_6
 X_1_1_7
 X_1_1_13
 X_1_1_14
 X_1_1_15
 X_1_1_16
 X_1_1_17
 X_1_1_18
 X_1_2_0
 X_1_2_1
 X_1_2_2
 X_1_2_3
 X_1_2_4
 X_1_2_5
 X_1_2_6
 X_1_2_7
 X_1_2_13
 X_1_2_14
 X_1_2_15
 X_1_2_16
 X_1_2_17
 X_1_2_18
 X_2_0_0
 X_2_0_1
 X_2_0_2
 X_2_0_3
 X_2_0_4
 X_2_0_5
 X_2_0_6
 X_2_0_7
 X_2_0_13
 X_2_0_14
 X_2_0_15
 X_2_0_16
 X_2_0_17
 X_2_0_18
 X_2_1_0
 X_2_1_1
 X_2_1_2
 X_2_1_3
 X_2_1_4
 X_2_1_5
 X_2_1_6
 X_2_1_7
 X_2_1_13
 X_2_1_14
 X_2_1_15
 X_2_1_16
 X_2_1_17
 X_2_1_18
 X_2_2_0
 X_2_2_1
 X_2_2_2
 X_2_2_3
 X_2_2_4
 X_2_2_5
 X_2_2_6
 X_2_2_7
 X_2_2_13
 X_2_2_14
 X_2_2_15
 X_2_2_16
 X_2_2_17
 X_2_2_18
 Y_0_0_0
 Y_0_0_1
 Y_0_0_2
 Y_0_0_3
 Y_0_0_13
 Y_0_0_14
 Y_0_0_15
 Y_0_0_16
 Y_0_1_0
 Y_0_1_1
 Y_0_1_2
 Y_0_1_3
 Y_0_1_13
 Y_0_1_14
 Y_0_1_15
 Y_0_1_16
 Y_0_2_0
 Y_0_2_1
 Y_0_2_2
 Y_0_2_3
 Y_0_2_13
 Y_0_2_14
 Y_0_2_15
 Y_0_2_16
 Y_1_0_0
 Y_1_0_1
 Y_1_0_2
 Y_1_0_13
 Y_1_0_14
 Y_1_1_0
 Y_1_1_1
 Y_1_1_2
 Y_1_1_13
 Y_1_1_14
 Y_1_2_0
 Y_1_2_1
 Y_1_2_2
 Y_1_2_13
 Y_1_2_14
 Y_2_0_0
 Y_2_0_1
 Y_2_0_2
 Y_2_0_13
 Y_2_0_14
 Y_2_1_0
 Y_2_1_1
 Y_2_1_2
 Y_2_1_13
 Y_2_1_14
 Y_2_2_0
 Y_2_2_1
 Y_2_2_2
 Y_2_2_13
 Y_2_2_14
 M_0_0
 M_0_1
 M_0_2
 M_0_3
 M_0_4
 M_0_5
 M_0_6
 M_0_7
 M_0_13
 M_0_14
 M_0_15
 M_0_16
 M_0_17
 M_0_18
 M_1_0
 M_1_1
 M_1_2
 M_1_3
 M_1_4
 M_1_5
 M_1_6
 M_1_7
 M_1_13
 M_1_14
 M_1_15
 M_1_16
 M_1_17
 M_1_18
 M_2_0
 M_2_1
 M_2_2
 M_2_3
 M_2_4
 M_2_5
 M_2_6
 M_2_7
 M_2_13
 M_2_14
 M_2_15
 M_2_16
 M_2_17
 M_2_18
 C_0
 C_1
 C_2
 C_3
 C_4
 C_5
 C_6
 C_7
 C_13
 C_14
 C_15
 C_16
 C_17
 C_18

END
